NAME: sample_FULL_MATRIX
TYPE: TSP
DIMENSION: 6
EDGE_WEIGHT_TYPE: EXPLICIT
EDGE_WEIGHT_FORMAT: FULL_MATRIX
EDGE_WEIGHT_SECTION
 0  5  5  7  7 10
 5  0  6  2  6  7
 5  6  0  6  2  7
 7  2  6  0  6  5
 7  6  2  6  0  5
10  7  7  5  5  0
EOF
